s td 24 4 25
b 1 2 24
b 2 4 6
b 3 4 14
b 4 7 17
b 5 1 9
b 6 20 24
b 7 10 21
b 8 3 5 23
b 9 15 16 18
b 10 1 13 17
b 11 1 15 18
b 12 10 24 25
b 13 10 13 22 24
b 14 1 5 15 22
b 15 1 5 14 23
b 16 1 5 14 22
b 17 1 13 14 22
b 18 13 14 22 24
b 19 14 22 24
b 20 24
b 21 8
b 22 11
b 23 12
b 24 19
1 20
1 21
1 22
1 23
1 24
2 3
3 18
4 10
5 17
6 20
7 13
8 15
9 11
10 17
11 14
12 13
13 18
14 16
15 16
16 17
17 18
18 20
18 19
